114  114  114  114  -1  
120  120  120  120  -1  
89  89  89  89  -1  
93  93  93  93  -1  
64  64  64  64  -1  
102  102  102  102  -1  
89  89  89  89  -1  
104  104  104  104  -1  
150  150  150  150  -1  
80  80  80  80  -1  
108  108  108  108  -1  
63  63  63  63  -1  
84  84  84  84  -1  
113  113  113  113  -1  
118  118  118  118  -1  
